s td 19 3 20
b 1 1 12 19
b 2 2 7
b 3 14 16 20
b 4 12 17 19
b 5 2 5 15
b 6 3 8 15
b 7 4 8 11
b 8 5 10 15
b 9 6 8 20
b 10 8 9 19
b 11 10 11 15
b 12 8 11 15
b 13 8 11 12
b 14 8 12 19
b 15 8 19 20
b 16 16 19 20
b 17 19 20
b 18 13
b 19 18
1 14
1 18
1 19
2 5
3 16
4 14
5 8
6 12
7 13
8 11
9 15
10 15
11 12
12 13
13 14
14 15
15 17
16 17
